O2 Sn
   1.00000000000000
     4.7799991609999974    0.0000000000000000    0.0000000000000000
     0.0000000000000000    4.7799991609999974    0.0000000000000000
     0.0000000000000000    0.0000000000000000    3.1589000000000000
   Sn   O
     2     4
Direct
  0.0000000000000000  0.0000000000000000  0.0000000000000000
  0.4999999999894484  0.4999999999894484  0.4999999999215419
  0.3054453360881171  0.3054453360881171  0.0000000000000000
  0.6945546638907727  0.6945546638907727  0.0000000000000000
  0.1945546639013243  0.8054453360775655  0.4999999999215419
  0.8054453360775655  0.1945546639013243  0.4999999999215419
