Zn  S 
 1.0000000000000000
     3.8539228799999998    0.0000000000000000    0.0000000000000000
     1.9269614400000004    3.3375951183060861    0.0000000000000000
     1.9269614400000004    1.1125317061020290    3.1467148546791344
   1   1
Cartesian
  0.0000000000000000  0.0000000000000000  0.0000000000000000
  5.7808843200000011  3.3375951183060861  2.3600361410093509
